5 5
3 53 0 24 4 26 2 89 1 60
4 41 1 29 0 15 2 45 3 65
2 89 4 71 0 9 1 88 3 1
3 8 0 88 1 63 2 11 4 81
1 8 3 35 4 35 0 33 2 5
-1
0 1 3 4 5
0 1 2 3 5
0 2 5
0 1 5
0 2 3 5
-2
70 150 248 331
63 89 113 276
199 374
9 275
45 99 131

335 5
16 7 1 23 12
20 6 17 13 4
10 8 18 3 24
15 21 0 9 14
5 22 11 2 19
